n = 21;
budget = 450000;
groceries = [|2370,140,70,170,90,3289|2760,240,360,40,74,2545|1205,70,85,65,76,1877|3570,300,210,170,183,2173|3231,243,261,135,86,2749|2709,182,259,105,110,2902|2160,171,207,72,101,3899|2490,110,130,170,119,2158|1056,78,24,72,102,1432|2478,91,182,154,90,3516|2580,50,10,260,190,2012|2664,9,333,144,171,987|3464,48,296,232,171,2850|1557,99,27,117,156,3543|6975,81,225,639,132,2494|3570,130,290,210,71,3487|4842,78,120,450,146,3246|4949,21,224,441,175,3554|4332,24,6,468,78,1670|5600,7,133,560,62,3658|1110,20,100,70,72,3392|];
requirements = [|13185,15257|342,455|1800,1980|513,613|];